NAME : input100_5.txt .out.tour
COMMENT : Tour for input100_5.txt .tsp (Length 1078.64)
TYPE : TOUR
DIMENSION : 100
TOUR_SECTION
1
39
33
21
23
7
68
51
99
2
92
86
45
37
20
26
64
12
48
61
43
31
94
30
98
78
17
56
65
66
8
13
11
79
95
36
91
59
47
76
35
73
34
60
16
25
57
77
29
71
82
62
28
41
84
22
40
49
44
54
93
32
4
10
42
69
14
63
67
96
18
50
83
53
3
19
88
90
97
100
9
6
72
5
70
80
27
52
75
24
89
81
74
55
58
87
85
46
15
38
1
